
  32    4
  10   10   10   10

   0   0   0   0   0   8 2 25 26 27 28 29 30 31 
   1   1   1   0   1   1 3 
   6   0   5   1   6   2 16 4 
   1   5   5   3   0   3 24 23 5 
   4   6   3   4   0   3 22 21 6 
   1   5   0   5   3   1 7 
   3   8   0   5   2   1 8 
   1   3   0   5   3   1 9 
   4   4   0   3   3   2 20 10 
   6   2   0   1   4   3 19 18 11 
   3   5   3   0   3   1 12 
   8   0   4   5   2   1 13 
   7   5   5   3   0   1 14 
   7   2   5   0   6   1 15 
   4   0   2   3   7   1 17 
   4   0   2   6   3   1 17 
   9   0   2   3   3   1 32
   5   1   5   7   0   1 32
   4   4   6   0   7   1 32
   6   5   9   0   5   1 32
   6   8   4   7   0   1 32
   4   2   4   7   0   1 32
   9   0   3   2   5   1 32
   6   2   2   4   0   1 32
   1   0   2   3   3   1 32
   6   0   7   4   5   1 32
   7   0   4   3   4   1 32
   7   4   4   0   4   1 32
   3   4   3   0   3   1 32
  10   5   4   0   3   1 32
   5   3   6   0   7   1 32
   0   0   0   0   0   0 
